c Random 5-CNF over 20 variables and 80 clauses
c Generated with `cnfgen`
c (C) 2012-2016 Massimo Lauria <lauria.massimo@gmail.com>
c https://massimolauria.github.io/cnfgen
c
c COMMAND LINE: cnfgen --output tmp-5-20-80.dimacs --output-format dimacs randkcnf 5 20 80
c
c sdimacs generated by gen-sdimacs
c
p cnf 20 80
r 0.5 1 2 3 4 5 6 7 8 9 10 0
e  11 12 13 14 15 16 17 18 19 20 0
5 -8 11 17 -19 0
-15 16 -17 -18 -20 0
1 -2 8 -10 -18 0
1 -2 -3 15 18 0
1 -5 11 -14 -16 0
-5 6 -10 19 20 0
-1 -3 -7 14 20 0
3 -4 -5 -11 19 0
4 -6 12 13 20 0
-7 13 -17 -19 20 0
-2 4 6 -13 -20 0
-3 -7 8 12 -19 0
-1 7 -8 17 -20 0
3 -5 -12 -14 -18 0
4 -5 -8 17 19 0
-4 -7 12 13 16 0
-4 5 -6 -12 -18 0
3 4 -8 11 15 0
4 6 -9 10 20 0
2 3 -4 -9 -11 0
3 5 -8 -16 20 0
-2 -3 -9 12 -13 0
-1 12 15 -17 -19 0
4 9 -10 11 13 0
2 8 13 14 -19 0
4 -11 13 17 -18 0
8 -11 -16 -18 -19 0
1 5 -9 -16 20 0
8 10 12 -14 -18 0
-1 -7 17 18 19 0
-2 -4 -8 10 -19 0
1 -6 9 12 -14 0
8 -11 14 18 19 0
-3 -7 -10 16 19 0
-9 -14 17 19 -20 0
-3 8 10 15 -20 0
9 -11 16 -17 -20 0
2 -3 -5 -6 -19 0
1 -6 7 -10 -14 0
-5 -8 -14 -19 -20 0
-2 -6 15 17 20 0
-2 -8 -10 -11 -18 0
2 7 11 -13 17 0
-3 5 7 -14 -19 0
-1 -2 3 5 -7 0
1 6 -9 -18 -19 0
7 -8 18 19 -20 0
1 6 -9 10 12 0
-4 9 17 18 20 0
-2 -4 11 15 17 0
-4 9 11 -12 18 0
-1 4 5 -11 12 0
3 -8 -11 -13 18 0
1 3 6 -16 -17 0
2 10 12 -15 17 0
-7 -10 -12 -13 15 0
-2 6 -14 18 -20 0
-2 5 -10 -11 -20 0
-1 -3 -5 -9 13 0
-6 -7 9 15 -19 0
1 -2 -6 12 15 0
1 -3 -5 -12 13 0
3 5 -15 -18 20 0
-4 5 -6 -18 -20 0
-3 -7 -13 15 -19 0
-5 -9 18 -19 -20 0
-6 8 -9 13 14 0
-2 8 -9 -19 20 0
-2 3 -13 14 18 0
4 7 -8 9 19 0
1 6 -15 -16 17 0
6 -7 -11 13 -20 0
-3 10 -14 -16 -17 0
-5 6 -11 14 15 0
2 -5 12 -13 -20 0
6 7 13 14 -19 0
-4 -6 12 -16 -17 0
-4 -8 10 -12 17 0
-5 -12 -15 16 -20 0
1 -2 -10 12 -14 0
